Problem:    zad21
Rows:       19
Columns:    17
Non-zeros:  59
Status:     OPTIMAL
Objective:  max_time = 37.66666667 (MINimum)

   No.   Row name   St   Activity     Lower bound   Upper bound    Marginal
------ ------------ -- ------------- ------------- ------------- -------------
     1 max_time     B        37.6667                             
     2 c1[A]        NS             1             1             =           4.2 
     3 c1[B]        NS             1             1             =       7.46667 
     4 c1[C]        NS             1             1             =       2.66667 
     5 c1[D]        NS             1             1             =           4.2 
     6 c1[E]        NS             1             1             =           5.6 
     7 c1[F]        NS             1             1             =           6.4 
     8 c1[G]        NS             1             1             =       2.33333 
     9 c1[H]        NS             1             1             =           4.8 
    10 c2[1]        NU             0                          -0     -0.533333 
    11 c2[2]        NU             0                          -0     -0.466667 
    12 c3[A]        B       -28.6667                          -0 
    13 c3[B]        B       -23.3333                          -0 
    14 c3[C]        B       -32.6667                          -0 
    15 c3[D]        B       -28.6667                          -0 
    16 c3[E]        B       -25.6667                          -0 
    17 c3[F]        B       -25.6667                          -0 
    18 c3[G]        B       -32.6667                          -0 
    19 c3[H]        B       -28.6667                          -0 

   No. Column name  St   Activity     Lower bound   Upper bound    Marginal
------ ------------ -- ------------- ------------- ------------- -------------
     1 x[1,A]       NL             0             0                    0.233333 
     2 x[2,A]       B              9             0               
     3 x[1,B]       B        11.6667             0               
     4 x[2,B]       B        2.66667             0               
     5 x[1,C]       B              5             0               
     6 x[2,C]       NL             0             0                    0.133333 
     7 x[1,D]       NL             0             0                    0.151515 
     8 x[2,D]       B              9             0               
     9 x[1,E]       NL             0             0                    0.133333 
    10 x[2,E]       B             12             0               
    11 x[1,F]       B             12             0               
    12 x[2,F]       NL             0             0                   0.0666667 
    13 x[1,G]       NL             0             0                    0.241667 
    14 x[2,G]       B              5             0               
    15 x[1,H]       B              9             0               
    16 x[2,H]       NL             0             0                    0.184314 
    17 Cmax         B        37.6667             0               

Karush-Kuhn-Tucker optimality conditions:

KKT.PE: max.abs.err = 1.42e-14 on row 11
        max.rel.err = 2.22e-16 on row 9
        High quality

KKT.PB: max.abs.err = 0.00e+00 on row 0
        max.rel.err = 0.00e+00 on row 0
        High quality

KKT.DE: max.abs.err = 2.22e-16 on column 17
        max.rel.err = 8.61e-17 on column 8
        High quality

KKT.DB: max.abs.err = 0.00e+00 on row 0
        max.rel.err = 0.00e+00 on row 0
        High quality

End of output
